10J3M/DAT/10J3MNTA-13.dat
10 3
18.6889 349.275
21.5004 462.2672
23.4185 548.4261
26.5759 706.2785
29.9063 894.3868
29.0417 843.4203
27.1008 734.4534
32.8319 1077.9337
27.5567 759.3717
37.3179 1392.6257
1942.1096