10J3M/SOL/10J3MNTA-13.sol
solution status: optimal solution found
objective value:                     65.1193315946256
x#1#1                                               1 	(obj:0)
x#2#1                               0.491943228899215 	(obj:0)
x#2#3                               0.508056771100785 	(obj:0)
x#3#2                               0.906612443891109 	(obj:0)
x#3#3                              0.0933875561088915 	(obj:0)
x#4#3                                               1 	(obj:0)
x#5#2                                               1 	(obj:0)
x#6#3                                               1 	(obj:0)
x#7#1                               0.290796265436334 	(obj:0)
x#7#3                               0.370725430923506 	(obj:0)
x#8#1                                               1 	(obj:0)
x#9#1                              0.0280971242527037 	(obj:0)
x#9#2                               0.971902875747296 	(obj:0)
z                                    65.1193315946256 	(obj:1)
